set N :=  1 2 3 4 5 6 7 8 9 10 11 12 13 14 15 ;

set M :=  1 2 3 4 5 6 7 8 9 ;

set T :=  1 2 3 4 5 6 7 8 9 10 11 12 13 14 15 16 17 18 19 20 21 22 23 24 ;

param arrival := 
    1 10
    2 7
    3 12
    4 9
    5 7
    6 6
    7 10
    8 10
    9 11
    10 6
    11 11
    12 9
    13 9
    14 6
    15 11
 ;

param depart := 
    1 20
    2 20
    3 24
    4 20
    5 21
    6 17
    7 19
    8 16
    9 19
    10 19
    11 21
    12 20
    13 20
    14 19
    15 18
 ;

param demand := 
    1 16
    2 4
    3 25
    4 16
    5 29
    6 24
    7 16
    8 30
    9 16
    10 11
    11 16
    12 19
    13 17
    14 21
    15 17
 ;

param installed_chargers := 
 1 4
 2 4
 3 4
 4 4
 5 8
 6 8
 7 8
 8 19
 9 19
 ;

param installed_cost := 
 1 1000
 2 1000
 3 1000
 4 1000
 5 1500
 6 1500
 7 1500
 8 2200
 9 2200
 ;

param POWER := 
    1 1 4
    2 1 4
    3 1 4
    4 1 4
    5 1 4
    6 1 4
    7 1 4
    8 1 4
    9 1 4
    10 1 4
    11 1 4
    12 1 4
    13 1 4
    14 1 4
    15 1 4
    1 2 4
    2 2 4
    3 2 4
    4 2 4
    5 2 4
    6 2 4
    7 2 4
    8 2 4
    9 2 4
    10 2 4
    11 2 4
    12 2 4
    13 2 4
    14 2 4
    15 2 4
    1 3 4
    2 3 4
    3 3 4
    4 3 4
    5 3 4
    6 3 4
    7 3 4
    8 3 4
    9 3 4
    10 3 4
    11 3 4
    12 3 4
    13 3 4
    14 3 4
    15 3 4
    1 4 4
    2 4 4
    3 4 4
    4 4 4
    5 4 4
    6 4 4
    7 4 4
    8 4 4
    9 4 4
    10 4 4
    11 4 4
    12 4 4
    13 4 4
    14 4 4
    15 4 4
    1 5 8
    2 5 8
    3 5 8
    4 5 8
    5 5 8
    6 5 8
    7 5 8
    8 5 8
    9 5 8
    10 5 8
    11 5 8
    12 5 8
    13 5 8
    14 5 8
    15 5 8
    1 6 8
    2 6 8
    3 6 8
    4 6 8
    5 6 8
    6 6 8
    7 6 8
    8 6 8
    9 6 8
    10 6 8
    11 6 8
    12 6 8
    13 6 8
    14 6 8
    15 6 8
    1 7 8
    2 7 8
    3 7 8
    4 7 8
    5 7 8
    6 7 8
    7 7 8
    8 7 8
    9 7 8
    10 7 8
    11 7 8
    12 7 8
    13 7 8
    14 7 8
    15 7 8
    1 8 8
    2 8 19
    3 8 19
    4 8 8
    5 8 19
    6 8 19
    7 8 8
    8 8 19
    9 8 8
    10 8 8
    11 8 8
    12 8 19
    13 8 19
    14 8 19
    15 8 19
    1 9 8
    2 9 19
    3 9 19
    4 9 8
    5 9 19
    6 9 19
    7 9 8
    8 9 19
    9 9 8
    10 9 8
    11 9 8
    12 9 19
    13 9 19
    14 9 19
    15 9 19
 ;

